120
[24,26,28,30,32,33,34,35,36,37,38,39,41,42,43,44,45,46,47,48,50,52,53,54,55,56,57,59,60,61,62,65,68,69,70,72,73,74,75,78,79,80,81,83,84,85,86,89,91,92,93,94,95,96]
[1,1,4,1,2,3,1,2,1,1,3,1,1,1,1,1,2,3,1,1,2,1,1,2,1,2,3,4,2,1,1,3,2,1,1,1,4,2,3,2,1,4,4,1,4,1,2,1,2,1,1,1,4,2]
